(set-info :smt-lib-version 2.6)
(set-logic QF_S)
(set-info :source |
Generated by: Murphy Berzish, Mitja Kulczynski, Federico Mora, Florin Manea, Joel Day, Dirk Nowotka, Vijay Ganesh, Zhengyang Lu
Generated on: 2020-10-01
Description: Translated from a collection of real-world regex queries, AutomataArk, collected by Loris D’Antoni and Fang Wang: https://github.com/lorisdanto/automatark
Application: Evaluate solvers on real-world regex queries
Target solver: Z3str3RE, CVC4, OSTRICH, Z3seq, Z3str3, Z3-Trau
Publications: Berzish, M., Kulczynski, M., Mora, F., Manea, F., Day, J. D., Nowotka, D., & Ganesh, V. (2021, July). An SMT solver for regular expressions and linear arithmetic over string length. In CAV 2021.
|)
(set-info :license "https://creativecommons.org/licenses/by/4.0/")
(set-info :category "industrial")
(set-info :status sat)

(declare-const X String)
(assert (not (str.in_re X (re.++ (str.to_re "AdTools") (re.+ (re.range "0" "9")) (str.to_re "rprpgbnrppb/ciExplorer/sto=notification\u{13}findwww.makemesearch.com\u{a}")))))
(assert (not (str.in_re X (re.union (re.++ (re.union (str.to_re "J") (str.to_re "j")) (re.union (re.++ (re.union (str.to_re "A") (str.to_re "a")) (re.union (str.to_re "N") (str.to_re "n")) (re.union (str.to_re "U") (str.to_re "u")) (re.union (str.to_re "A") (str.to_re "a")) (re.union (str.to_re "R") (str.to_re "r")) (re.union (str.to_re "Y") (str.to_re "y"))) (re.++ (re.union (str.to_re "U") (str.to_re "u")) (re.union (str.to_re "N") (str.to_re "n")) (re.union (str.to_re "E") (str.to_re "e"))) (re.++ (re.union (str.to_re "U") (str.to_re "u")) (re.union (str.to_re "L") (str.to_re "l")) (re.union (str.to_re "Y") (str.to_re "y"))))) (re.++ (re.union (re.++ (re.union (re.++ (re.union (str.to_re "S") (str.to_re "s")) (re.union (str.to_re "E") (str.to_re "e")) (re.union (str.to_re "P") (str.to_re "p")) (re.union (str.to_re "T") (str.to_re "t"))) (re.++ (re.union (str.to_re "N") (str.to_re "n")) (re.union (str.to_re "O") (str.to_re "o")) (re.union (str.to_re "V") (str.to_re "v"))) (re.++ (re.union (str.to_re "D") (str.to_re "d")) (re.union (str.to_re "E") (str.to_re "e")) (re.union (str.to_re "C") (str.to_re "c")))) (re.union (str.to_re "E") (str.to_re "e")) (re.union (str.to_re "M") (str.to_re "m"))) (re.++ (re.union (str.to_re "O") (str.to_re "o")) (re.union (str.to_re "C") (str.to_re "c")) (re.union (str.to_re "T") (str.to_re "t")) (re.union (str.to_re "O") (str.to_re "o")))) (re.union (str.to_re "B") (str.to_re "b")) (re.union (str.to_re "E") (str.to_re "e")) (re.union (str.to_re "R") (str.to_re "r"))) (re.++ (re.union (str.to_re "M") (str.to_re "m")) (re.union (str.to_re "A") (str.to_re "a")) (re.union (re.++ (re.union (str.to_re "R") (str.to_re "r")) (re.union (str.to_re "C") (str.to_re "c")) (re.union (str.to_re "H") (str.to_re "h"))) (str.to_re "Y") (str.to_re "y"))) (re.++ (re.union (str.to_re "A") (str.to_re "a")) (re.union (re.++ (re.union (str.to_re "P") (str.to_re "p")) (re.union (str.to_re "R") (str.to_re "r")) (re.union (str.to_re "I") (str.to_re "i")) (re.union (str.to_re "L") (str.to_re "l"))) (re.++ (re.union (str.to_re "U") (str.to_re "u")) (re.union (str.to_re "G") (str.to_re "g")) (re.union (str.to_re "U") (str.to_re "u")) (re.union (str.to_re "S") (str.to_re "s")) (re.union (str.to_re "T") (str.to_re "t"))))) (re.++ (re.union (str.to_re "F") (str.to_re "f")) (str.to_re "\u{a}") (re.union (str.to_re "E") (str.to_re "e")) (re.union (str.to_re "B") (str.to_re "b")) (re.union (str.to_re "R") (str.to_re "r")) (re.union (str.to_re "U") (str.to_re "u")) (re.union (str.to_re "A") (str.to_re "a")) (re.union (str.to_re "R") (str.to_re "r")) (re.union (str.to_re "Y") (str.to_re "y"))) (re.++ (re.union (str.to_re "S") (str.to_re "s")) (re.union (str.to_re "E") (str.to_re "e")) (re.union (str.to_re "P") (str.to_re "p"))) (re.++ (re.union (str.to_re "N") (str.to_re "n")) (re.union (str.to_re "O") (str.to_re "o")) (re.union (str.to_re "V") (str.to_re "v"))) (re.++ (re.union (str.to_re "D") (str.to_re "d")) (re.union (str.to_re "E") (str.to_re "e")) (re.union (str.to_re "C") (str.to_re "c"))) (re.++ (re.union (str.to_re "O") (str.to_re "o")) (re.union (str.to_re "C") (str.to_re "c")) (re.union (str.to_re "T") (str.to_re "t")))))))
(assert (str.in_re X (re.++ (str.to_re "User-Agent:") (re.+ (re.union (str.to_re " ") (str.to_re "\u{9}") (str.to_re "\u{a}") (str.to_re "\u{c}") (str.to_re "\u{d}"))) (str.to_re "Subject:as.starware.com\u{a}"))))
(assert (not (str.in_re X (re.++ (str.to_re "/") ((_ re.loop 8 8) (re.union (re.range "A" "F") (re.range "0" "9"))) ((_ re.loop 3 3) (re.++ (str.to_re "-") ((_ re.loop 4 4) (re.union (re.range "A" "F") (re.range "0" "9"))))) (str.to_re "-") ((_ re.loop 12 12) (re.union (re.range "A" "F") (re.range "0" "9"))) re.allchar (str.to_re "wipe/Ui\u{a}")))))
(check-sat)

(exit)
